NAME : single.3410.tour
COMMENT : Length = 3410
COMMENT : Found by LKH [Keld Helsgaun] Thu Apr  7 15:45:20 2022
TYPE : TOUR
DIMENSION : 101
TOUR_SECTION
1
84
85
79
78
76
69
66
75
77
73
74
71
72
68
70
67
65
59
63
64
35
45
46
48
50
33
34
37
38
41
43
44
49
52
39
30
47
40
51
53
55
57
58
60
62
61
54
26
27
29
22
14
15
3
5
8
11
12
13
17
18
19
20
21
23
24
28
31
32
36
42
56
25
16
6
2
4
7
9
10
101
92
94
95
91
86
81
80
82
83
87
89
90
93
88
99
98
100
96
97
-1
EOF
